p cnf 133 167
c 1 string_SYSROOT_EQ_EMPTY
c 2 string_SW_VERSIONS_FILE_EQ_/etc/sw-versions
c 3 string_SOCKET_PROGRESS_PATH_EQ_OTHERVAL
c 4 string_SOCKET_CTRL_PATH_EQ_OTHERVAL
c 5 string_EXTRA_LDLIBS_EQ_EMPTY
c 6 string_EXTRA_LDFLAGS_EQ_EMPTY
c 7 string_EXTRA_CFLAGS_EQ_EMPTY
c 8 string_DEFAULT_CONFIG_FILE_EQ_/etc/swupdate.cfg
c 9 string_CROSS_COMPILE_EQ_EMPTY
c 10 boolean_WERROR
c 11 boolean_MONGOOSE
c 12 boolean_WEBSERVER
c 13 string_UBOOT_DEFAULTENV_EQ_/etc/u-boot-initial-env
c 14 string_UBOOT_FWENV_EQ_/etc/fw_env.config
c 15 boolean_UBOOT
c 16 boolean_SHELLSCRIPTHANDLER
c 17 string_SWDESCRIPTION_EQ_OTHERVAL
c 18 boolean_SETSWDESCRIPTION
c 19 boolean_SCRIPTS
c 20 boolean_RAW
c 21 boolean_NOCLEANUP
c 22 string_HW_COMPATIBILITY_FILE_EQ_/etc/hwrevision
c 23 boolean_HW_COMPATIBILITY
c 24 boolean_FEATURE_SYSLOG
c 25 boolean_FAT_FILESYSTEM
c 26 boolean_DISKFORMAT
c 27 boolean_DISKFORMAT_HANDLER
c 28 boolean_DEBUG_PESSIMIZE
c 29 boolean_DEBUG
c 30 boolean_BOOTLOADER_NONE
c 31 string_GRUBENV_PATH_EQ_/boot/efi/EFI/BOOT/grub/grubenv
c 32 boolean_BOOTLOADER_GRUB
c 33 boolean_BOOTLOADER_DEFAULT_EBG
c 34 boolean_BOOTLOADER_DEFAULT_UBOOT
c 35 boolean_BOOTLOADER_DEFAULT_GRUB
c 36 boolean_BOOTLOADER_DEFAULT_NONE
c 37 boolean_UPDATE_STATE_CHOICE_NONE
c 38 boolean_UPDATE_STATE_CHOICE_BOOTLOADER
c 39 boolean_BOOTLOADER_EBG
c 40 boolean_BOOTLOADERHANDLER
c 41 boolean_ZSTD
c 42 ENV_boolean_HAVE_ZSTD_ALIAS_HAVE_ZSTD
c 43 boolean_GUNZIP
c 44 ENV_boolean_HAVE_ZLIB_ALIAS_HAVE_ZLIB
c 45 boolean_CURL
c 46 boolean_CHANNEL_CURL
c 47 boolean_DELTA
c 48 ENV_boolean_HAVE_ZCK_ALIAS_HAVE_ZCK
c 49 ENV_boolean_HAVE_WOLFSSL_ALIAS_HAVE_WOLFSSL
c 50 ENV_boolean_HAVE_URIPARSER_ALIAS_HAVE_URIPARSER
c 51 boolean_PKCS11
c 52 ENV_boolean_HAVE_P11KIT_ALIAS_HAVE_P11KIT
c 53 ENV_boolean_HAVE_MBEDTLS_ALIAS_HAVE_MBEDTLS
c 54 string_EXTPARSERNAME_EQ_OTHERVAL
c 55 boolean_SETEXTPARSERNAME
c 56 boolean_LUAEXTERNAL
c 57 string_EMBEDDED_LUA_HANDLER_SOURCE_EQ_swupdate_handlers.lua
c 58 boolean_EMBEDDED_LUA_HANDLER
c 59 boolean_HANDLER_IN_LUA
c 60 boolean_LUASCRIPTHANDLER
c 61 string_LUAPKG_EQ_lua
c 62 boolean_LUA
c 63 ENV_boolean_HAVE_LUA_ALIAS_HAVE_LUA
c 64 ENV_boolean_HAVE_LINUX_ALIAS_HAVE_LINUX
c 65 boolean_REMOTE_HANDLER
c 66 ENV_boolean_HAVE_LIBZEROMQ_ALIAS_HAVE_LIBZEROMQ
c 67 string_PARSERROOT_EQ_OTHERVAL
c 68 boolean_JSON
c 69 boolean_SWUFORWARDER_HANDLER
c 70 ENV_boolean_HAVE_LIBWEBSOCKETS_ALIAS_HAVE_LIBWEBSOCKETS
c 71 int_UBIVIDOFFSET_EQ_0
c 72 int_UBIVIDOFFSET_EQ_OTHERVAL
c 73 string_UBIBLACKLIST_EQ_OTHERVAL
c 74 string_UBIWHITELIST_EQ_OTHERVAL
c 75 boolean_UBIATTACH
c 76 boolean_UBIVOL
c 77 ENV_boolean_HAVE_LIBUBI_ALIAS_HAVE_LIBUBI
c 78 boolean_SYSTEMD
c 79 ENV_boolean_HAVE_LIBSYSTEMD_ALIAS_HAVE_LIBSYSTEMD
c 80 boolean_SSL_IMPL_NONE
c 81 boolean_SSL_IMPL_OPENSSL
c 82 boolean_SSL_IMPL_WOLFSSL
c 83 boolean_SSL_IMPL_MBEDTLS
c 84 ENV_boolean_HAVE_LIBSSL_ALIAS_HAVE_LIBSSL
c 85 boolean_RDIFFHANDLER
c 86 ENV_boolean_HAVE_LIBRSYNC_ALIAS_HAVE_LIBRSYNC
c 87 boolean_CFI
c 88 boolean_CFIHAMMING1
c 89 boolean_SSBLSWITCH
c 90 boolean_MTD
c 91 ENV_boolean_HAVE_LIBMTD_ALIAS_HAVE_LIBMTD
c 92 boolean_UCFWHANDLER
c 93 ENV_boolean_HAVE_LIBGPIOD_ALIAS_HAVE_LIBGPIOD
c 94 boolean_DISKPART_FORMAT
c 95 boolean_DISKPART
c 96 ENV_boolean_HAVE_LIBFDISK_ALIAS_HAVE_LIBFDISK
c 97 boolean_EXT_FILESYSTEM
c 98 ENV_boolean_HAVE_LIBEXT2FS_ALIAS_HAVE_LIBEXT2FS
c 99 boolean_CURL_SSL
c 100 boolean_CHANNEL_CURL_SSL
c 101 boolean_DOWNLOAD_SSL
c 102 boolean_DOWNLOAD
c 103 boolean_SURICATTA_SSL
c 104 boolean_SURICATTA_HAWKBIT
c 105 boolean_SURICATTA_GENERAL
c 106 boolean_SURICATTA
c 107 ENV_boolean_HAVE_LIBCURL_ALIAS_HAVE_LIBCURL
c 108 ENV_boolean_HAVE_LIBCRYPTO_ALIAS_HAVE_LIBCRYPTO
c 109 boolean_LIBCONFIG
c 110 ENV_boolean_HAVE_LIBCONFIG_ALIAS_HAVE_LIBCONFIG
c 111 boolean_UNIQUEUUID
c 112 ENV_boolean_HAVE_LIBBLKID_ALIAS_HAVE_LIBBLKID
c 113 boolean_LOCALE
c 114 boolean_ARCHIVE
c 115 ENV_boolean_HAVE_LIBARCHIVE_ALIAS_HAVE_LIBARCHIVE
c 116 ENV_boolean_HAVE_JSON_C_ALIAS_HAVE_JSON_C
c 117 string_SOCKET_NOTIFIER_DIRECTORY_EQ_/tmp/
c 118 ENV_boolean_HAVE_FREEBSD_ALIAS_HAVE_FREEBSD
c 119 string_UPDATE_STATE_BOOTLOADER_EQ_ustate
c 120 boolean_MONGOOSEIPV6
c 121 boolean_READBACKHANDLER
c 122 boolean_HASH_VERIFY
c 123 boolean_SIGALG_RAWRSA
c 124 boolean_SIGALG_RSAPSS
c 125 boolean_SIGALG_CMS
c 126 boolean_SIGNED_IMAGES
c 127 boolean_CMS_IGNORE_EXPIRED_CERTIFICATE
c 128 boolean_CMS_IGNORE_CERTIFICATE_PURPOSE
c 129 boolean_CMS_SKIP_UNKNOWN_SIGNERS
c 130 boolean_ENCRYPTED_SW_DESCRIPTION
c 131 boolean_ENCRYPTED_IMAGES
c 132 boolean_MONGOOSESSL
-25 0
10 0
9 0
8 0
7 0
6 0
5 0
4 0
3 0
2 0
116 -115 0
30 -29 0
108 -48 0
43 -48 0
49 -48 0
97 -96 0
108 -103 0
44 -45 0
45 -44 0
111 -110 0
64 -63 0
92 -91 0
65 -91 0
87 -86 0
67 -66 0
108 -107 0
108 -70 0
117 -70 0
71 -70 0
51 -70 0
80 -79 0
65 -79 0
94 -93 0
113 -112 0
43 -42 0
-34 -35 0
-34 -36 0
-34 -37 0
-36 -35 0
-37 -35 0
-36 -37 0
34 36 37 35 -31 0
34 36 37 35 -33 0
34 36 37 35 -40 0
34 36 37 35 -16 0
40 33 31 16 -34 0
40 33 31 16 -35 0
40 33 31 16 -36 0
40 33 31 16 -37 0
40 -34 0
16 -35 0
33 -36 0
31 -37 0
-39 -38 0
39 38 0
40 33 31 16 -39 0
12 -13 0
13 -12 0
-81 -82 0
-81 -83 0
-84 -81 0
-82 -83 0
-84 -82 0
-84 -83 0
84 81 82 83 0
85 -82 0
50 -83 0
54 -84 0
32 -33 0
33 -32 0
23 -24 0
24 -23 0
118 -119 0
119 -118 0
18 -19 0
19 -18 0
14 -16 0
16 -14 0
15 -16 0
16 -15 0
91 -88 0
91 -89 0
96 -95 0
103 -102 0
84 82 83 -132 0
115 -114 0
63 -57 0
63 -61 0
13 -121 0
84 82 83 -133 0
13 -133 0
84 82 83 -127 0
91 -90 0
107 -104 0
91 -77 0
78 -77 0
-106 -105 0
106 105 -117 -107 0
117 -105 0
117 -106 0
107 -105 0
107 -106 0
117 -105 0
117 -106 0
62 -63 0
63 -62 0
120 -39 0
39 -120 0
47 -48 0
47 -103 0
47 -70 0
47 -107 0
48 103 107 70 -47 0
27 -95 0
27 -28 0
28 95 -27 0
132 -131 0
61 -60 0
123 -127 0
127 84 82 83 -123 0
69 -70 0
69 -107 0
117 107 70 -69 0
50 -52 0
53 -52 0
132 -52 0
57 -56 0
77 -76 0
-124 -125 0
-126 -124 0
-126 -125 0
126 124 125 -127 0
127 -124 0
127 -125 0
127 -126 0
82 -126 0
101 -104 0
101 -102 0
102 104 -101 0
126 -129 0
126 -128 0
126 -130 0
46 -108 -47 0
47 -46 0
108 -46 0
60 -59 0
99 -98 0
27 -98 0
27 -26 0
123 -122 0
-72 -73 0
72 73 -76 0
76 -73 0
76 -72 0
55 -56 0
56 -55 0
68 -69 0
69 110 -68 0
68 -110 0
74 -76 0
76 -74 0
75 -76 0
76 -75 0
100 -101 0
101 -100 0
58 -59 0
59 -58 0